# Solution for model r3_t9_m6_3
# Finished Task: 9 / 9
# Makespan: 521.0, Total Distance: 570.0, Total Time: 0.0442
# R O S F
0 0 6 0.0 0.0
1 1 3 0.0 0.0
2 2 11 0.0 0.0
3 1 7 69.0 99.0
4 0 -1 499.0 521.0
5 2 -1 476.0 505.0
6 0 8 382.0 410.0
7 1 9 410.0 430.0
8 0 4 463.0 483.0
9 1 -1 457.0 494.0
10 2 5 430.0 463.0
11 2 10 93.0 126.0
